\* SkillGroupAssignment *\
Minimize
OBJ: 0 __dummy
Subject To
_dummy: __dummy = 0
_C1: __dummy = 3
_C10: __dummy >= 1
_C11: __dummy = 3
_C12: __dummy >= 1
_C13: __dummy = 3
_C14: __dummy >= 1
_C15: __dummy = 3
_C16: __dummy >= 1
_C17: - y_引_0 >= 0
_C18: - y_引_1 >= 0
_C19: - y_引_2 >= 0
_C2: __dummy >= 1
_C20: - y_引_3 >= 0
_C21: - y_引_4 >= 0
_C22: - y_引_5 >= 0
_C23: - y_引_6 >= 0
_C24: - y_引_7 >= 0
_C25: y_引_0 + y_引_1 + y_引_2 + y_引_3 + y_引_4 + y_引_5 + y_引_6 + y_引_7 = 6
_C3: __dummy = 3
_C4: __dummy >= 1
_C5: __dummy = 3
_C6: __dummy >= 1
_C7: __dummy = 3
_C8: __dummy >= 1
_C9: __dummy = 3
Bounds
 __dummy = 0
Binaries
y_引_0
y_引_1
y_引_2
y_引_3
y_引_4
y_引_5
y_引_6
y_引_7
End
